1111100 AB
1438 28 58 88 118 148 178 208 238 268 298
1111100 BA
300 330 360 60 90 120 150 180 210 240 270
0000011 AB
1438 28 58 88 118 148 178 208 238 268 298
0000011 BA
300 330 360 60 90 120 150 180 210 240 270
